letting n =  10
letting blocks =  [[1, 4], [1, 5], [1, 6], [1, 7], [1, 9], [1, 10], [2, 2], [2, 3], [2, 4], [2, 6], [2, 7], [3, 1], [3, 4], [3, 5], [3, 8], [3, 9], [3, 10], [4, 1], [4, 2], [4, 4], [4, 7], [4, 8], [4, 10], [5, 1], [5, 4], [5, 5], [5, 8], [5, 9], [5, 10], [6, 3], [6, 4], [6, 6], [6, 7], [6, 10], [7, 1], [7, 2], [7, 3], [7, 5], [7, 8], [7, 9], [8, 2], [8, 3], [8, 6], [8, 7], [8, 8], [8, 9], [9, 1], [9, 2], [9, 3], [9, 5], [9, 9], [9, 10], [10, 1], [10, 3], [10, 5], [10, 6], [10, 7], [10, 8]]
